<number of tasks>
20


<number of equipment>
5


<cycle time>
1000


<investment costs>
1,9777
2,18000
3,21816
4,16237
5,25835


<task times>
1,311,-1,-1,-1,204
2,-1,331,-1,354,479
3,-1,-1,319,345,276
4,-1,464,-1,509,381
5,-1,-1,311,336,273
6,-1,-1,203,257,120
7,-1,289,-1,329,235
8,-1,337,-1,373,283
9,-1,139,-1,327,135
10,337,-1,-1,-1,131
11,403,-1,-1,-1,180
12,-1,335,-1,400,358
13,-1,-1,183,156,70
14,-1,-1,215,285,142
15,-1,473,-1,337,226
16,-1,-1,218,311,153
17,-1,-1,470,345,404
18,-1,-1,203,309,114
19,-1,-1,229,332,159
20,-1,-1,298,375,198


<precedence relations>
1,3
1,4
2,3
2,4
3,5
3,6
4,5
4,6
5,7
5,8
6,7
6,8
7,10
7,11
8,9
8,10
9,16
10,13
10,14
10,15
11,12
11,16
12,14
12,15
13,16
14,17
14,18
16,18
17,19
18,19
18,20


<task types>
1,1
2,2
3,3
4,2
5,3
6,3
7,2
8,2
9,2
10,1
11,1
12,2
13,3
14,3
15,2
16,3
17,3
18,3
19,3
20,3


<line depot>
1,0
2,0
3,0
4,2
5,4


<processing costs>
1,7200
2,7200
3,7200
4,14400
5,21600


<saving costs>
1,977
2,1800
3,2181
4,1623
5,2583


<end>
